FILENAME:   ../instances_new/flowersnark/flowersnark17_3.cip
SETTINGS:   settings_final_peek_relabel_respect
TIMELIMIT:  7200
OUTPUTNAME: final_flowersnark__settings_final_peek_relabel_respect__3__
BINNAME:    bin/sbcs.linux.x86_64.gnu.opt.cpx
BASENAME:   flowersnark17_3.cip
SEED:       3
@01 ../instances_new/flowersnark/flowersnark17_3.cip ===========
@02 flowersnark17_3.cip
@03 1668004076
SCIP version 8.0.2 [precision: 8 byte] [memory: block] [mode: optimized] [LP solver: CPLEX 20.1.0.0] [GitHash: 5f0473c]
Copyright (C) 2002-2022 Konrad-Zuse-Zentrum fuer Informationstechnik Berlin (ZIB)

Symretope propagation methods - (c) Jasper van Doornmalen, Christopher Hojny.
[GitHash: 2fd0484]

reading parameter file <../settings/settings_final_peek_relabel_respect.set> ...

Changed settings:
limits/time = 7200
misc/usesymmetry = 1
randomization/randomseedshift = 3
constraints/orbisack/sepafreq = -1
constraints/symresack/sepafreq = -1
propagating/symmetry/addsymresacks = TRUE
propagating/symmetry/detectsubgroups = FALSE
propagating/symmetry/relabelsymretopes = 3
propagating/symmetry/ofsymcomptiming = 0
constraints/symretope/sepafreq = -1


solving problem ...

original problem has 306 variables (306 bin, 0 int, 0 impl, 0 cont) and 306 constraints
presolving:
(round 1, exhaustive) 0 del vars, 0 del conss, 0 add conss, 0 chg bounds, 0 chg sides, 0 chg coeffs, 306 upgd conss, 0 impls, 306 clqs
   (0.0s) probing: 51/306 (16.7%) - 0 fixings, 0 aggregations, 0 implications, 0 bound changes
   (0.0s) probing aborted: 50/50 successive totally useless probings
   (0.0s) symmetry computation started: requiring (bin +, int +, cont +), (fixed: bin -, int -, cont -)
   (0.0s) symmetry computation finished: 5 generators found (max: 1500, log10 of symmetry group size: 2.6)
(round 2, exhaustive) 7 del vars, 0 del conss, 5 add conss, 0 chg bounds, 0 chg sides, 0 chg coeffs, 306 upgd conss, 0 impls, 303 clqs
(round 3, fast)       16 del vars, 7 del conss, 5 add conss, 0 chg bounds, 0 chg sides, 0 chg coeffs, 306 upgd conss, 0 impls, 299 clqs
(round 4, medium)     17 del vars, 7 del conss, 5 add conss, 0 chg bounds, 0 chg sides, 0 chg coeffs, 306 upgd conss, 0 impls, 299 clqs
(round 5, fast)       18 del vars, 8 del conss, 5 add conss, 0 chg bounds, 0 chg sides, 0 chg coeffs, 306 upgd conss, 0 impls, 298 clqs
   (0.0s) probing cycle finished: starting next cycle
(round 6, exhaustive) 25 del vars, 8 del conss, 5 add conss, 0 chg bounds, 0 chg sides, 0 chg coeffs, 306 upgd conss, 0 impls, 415 clqs
(round 7, fast)       25 del vars, 18 del conss, 5 add conss, 0 chg bounds, 1 chg sides, 0 chg coeffs, 306 upgd conss, 0 impls, 415 clqs
   (0.0s) probing: 199/289 (68.9%) - 0 fixings, 7 aggregations, 163 implications, 0 bound changes
   (0.0s) probing aborted: 50/50 successive totally useless probings
presolving (8 rounds: 8 fast, 5 medium, 4 exhaustive):
 25 deleted vars, 18 deleted constraints, 5 added constraints, 0 tightened bounds, 0 added holes, 1 changed sides, 0 changed coefficients
 0 implications, 431 cliques
presolved problem has 286 variables (286 bin, 0 int, 0 impl, 0 cont) and 293 constraints
    288 constraints of type <setppc>
      2 constraints of type <orbisack>
      2 constraints of type <orbitope>
      1 constraints of type <symretope>
transformed objective value is always integral (scale: 1)
Presolving Time: 0.02

 time | node  | left  |LP iter|LP it/n|mem/heur|mdpt |vars |cons |rows |cuts |sepa|confs|strbr|  dualbound   | primalbound  |  gap   | compl. 
  0.0s|     1 |     0 |   209 |     - |  5206k |   0 | 286 | 368 | 289 |   0 |  0 |  75 |   0 | 0.000000e+00 |      --      |    Inf | unknown
  0.1s|     1 |     0 |   603 |     - |  6664k |   0 | 286 | 569 | 290 |   1 |  1 |  76 |   0 | 0.000000e+00 |      --      |    Inf | unknown
  0.2s|     1 |     0 |   691 |     - |  7550k |   0 | 286 | 570 | 293 |   4 |  2 |  77 |   0 | 0.000000e+00 |      --      |    Inf | unknown
  0.2s|     1 |     0 |   752 |     - |    10M |   0 | 286 | 571 | 294 |   5 |  3 |  78 |   0 | 0.000000e+00 |      --      |    Inf | unknown
  0.2s|     1 |     0 |   822 |     - |    10M |   0 | 286 | 572 | 296 |   7 |  4 |  79 |   0 | 0.000000e+00 |      --      |    Inf | unknown
  0.3s|     1 |     0 |   891 |     - |    12M |   0 | 286 | 575 | 300 |  11 |  5 |  82 |   0 | 0.000000e+00 |      --      |    Inf | unknown
  0.3s|     1 |     0 |   992 |     - |    13M |   0 | 286 | 577 | 303 |  14 |  6 |  84 |   0 | 0.000000e+00 |      --      |    Inf | unknown
  0.3s|     1 |     0 |  1119 |     - |    16M |   0 | 286 | 577 | 309 |  20 |  7 |  85 |   0 | 0.000000e+00 |      --      |    Inf | unknown
  0.4s|     1 |     0 |  1207 |     - |    17M |   0 | 286 | 579 | 312 |  23 |  8 |  87 |   0 | 0.000000e+00 |      --      |    Inf | unknown
  0.4s|     1 |     0 |  1323 |     - |    19M |   0 | 286 | 580 | 313 |  24 |  9 |  88 |   0 | 0.000000e+00 |      --      |    Inf | unknown
  0.4s|     1 |     0 |  1451 |     - |    20M |   0 | 286 | 583 | 317 |  28 | 10 |  91 |   0 | 0.000000e+00 |      --      |    Inf | unknown
  0.5s|     1 |     0 |  1567 |     - |    20M |   0 | 286 | 586 | 319 |  31 | 11 |  94 |   0 | 0.000000e+00 |      --      |    Inf | unknown
  0.7s|     1 |     2 |  1567 |     - |    20M |   0 | 286 | 590 | 319 |  31 | 11 |  98 |  12 | 0.000000e+00 |      --      |    Inf | unknown
  1.8s|   100 |    44 |  9352 |  78.6 |    21M |  16 | 286 | 840 | 309 |  64 |  2 | 348 |  12 | 0.000000e+00 |      --      |    Inf |   1.10%
  2.3s|   200 |    58 | 15446 |  69.7 |    26M |  17 | 286 |1097 | 307 | 155 |  1 | 610 |  12 | 0.000000e+00 |      --      |    Inf |   2.92%
 time | node  | left  |LP iter|LP it/n|mem/heur|mdpt |vars |cons |rows |cuts |sepa|confs|strbr|  dualbound   | primalbound  |  gap   | compl. 
  2.9s|   300 |    67 | 21455 |  66.5 |    26M |  17 | 286 |1348 | 303 | 195 |  1 | 867 |  12 | 0.000000e+00 |      --      |    Inf |   6.82%
  3.1s|   400 |    71 | 25564 |  60.1 |    29M |  17 | 286 |1589 | 308 | 213 |  1 |1113 |  12 | 0.000000e+00 |      --      |    Inf |   8.35%
  3.4s|   500 |    66 | 30433 |  57.8 |    32M |  18 | 286 |1819 | 305 | 238 |  0 |1343 |  12 | 0.000000e+00 |      --      |    Inf |   8.58%
  3.7s|   600 |    63 | 35782 |  57.1 |    32M |  18 | 286 |2080 | 303 | 247 |  1 |1605 |  12 | 0.000000e+00 |      --      |    Inf |  10.19%
  4.6s|   700 |    64 | 41813 |  57.6 |    33M |  18 | 286 |2291 | 306 | 296 |  1 |1823 |  12 | 0.000000e+00 |      --      |    Inf |  20.84%
  4.8s|   800 |    55 | 46454 |  56.2 |    33M |  18 | 286 |2435 | 303 | 322 |  1 |1977 |  12 | 0.000000e+00 |      --      |    Inf |  23.21%
  5.6s|   900 |    69 | 52376 |  56.5 |    33M |  18 | 286 |2566 | 306 | 378 |  0 |2218 |  12 | 0.000000e+00 |      --      |    Inf |  31.14%
  5.9s|  1000 |    52 | 56791 |  55.3 |    33M |  18 | 286 |2504 | 306 | 412 |  1 |2357 |  12 | 0.000000e+00 |      --      |    Inf |  34.18%
  6.6s|  1100 |    51 | 63366 |  56.2 |    34M |  18 | 286 |2463 | 307 | 455 |  0 |2568 |  12 | 0.000000e+00 |      --      |    Inf |  37.74%
  7.1s|  1200 |    40 | 69589 |  56.7 |    34M |  18 | 286 |2380 | 303 | 528 |  0 |2873 |  12 | 0.000000e+00 |      --      |    Inf |  39.99%
  7.5s|  1300 |    24 | 74026 |  55.8 |    34M |  18 | 286 |2237 | 307 | 574 |  1 |3024 |  12 | 0.000000e+00 |      --      |    Inf |  46.56%
  8.3s|  1400 |    18 | 81025 |  56.8 |    34M |  18 | 286 |2157 | 307 | 645 |  2 |3242 |  12 | 0.000000e+00 |      --      |    Inf |  63.33%
  8.9s|  1500 |    15 | 86044 |  56.4 |    34M |  18 | 286 |2259 | 304 | 679 |  1 |3484 |  12 | 0.000000e+00 |      --      |    Inf |  69.09%
  9.7s|  1600 |    25 | 92126 |  56.6 |    34M |  18 | 286 |2295 | 306 | 747 |  1 |3692 |  12 | 0.000000e+00 |      --      |    Inf |  80.82%
 10.4s|  1700 |    50 | 98824 |  57.2 |    33M |  18 | 286 |2504 |   0 | 815 |  0 |4052 |  12 | 0.000000e+00 |      --      |    Inf |  81.65%
 time | node  | left  |LP iter|LP it/n|mem/heur|mdpt |vars |cons |rows |cuts |sepa|confs|strbr|  dualbound   | primalbound  |  gap   | compl. 
 10.7s|  1800 |    34 |102346 |  56.0 |    34M |  18 | 286 |2616 | 303 | 837 |  1 |4283 |  12 | 0.000000e+00 |      --      |    Inf |  82.51%
 11.0s|  1900 |    29 |107713 |  55.9 |    34M |  18 | 286 |2708 | 306 | 874 |  1 |4462 |  12 | 0.000000e+00 |      --      |    Inf |  83.29%
 11.3s|  2000 |    23 |112331 |  55.4 |    34M |  18 | 286 |2856 | 306 | 901 |  1 |4797 |  12 | 0.000000e+00 |      --      |    Inf |  84.03%
 11.6s|  2100 |    24 |117038 |  55.0 |    34M |  18 | 286 |2993 | 306 | 917 |  1 |5021 |  12 | 0.000000e+00 |      --      |    Inf |  84.38%
 11.9s|  2200 |    12 |121584 |  54.6 |    34M |  18 | 286 |3127 | 307 | 947 |  0 |5234 |  12 | 0.000000e+00 |      --      |    Inf |  85.39%

SCIP Status        : problem is solved [infeasible]
Solving Time (sec) : 12.37
Solving Nodes      : 2279
Primal Bound       : +1.00000000000000e+20 (0 solutions)
Dual Bound         : +1.00000000000000e+20
Gap                : 0.00 %
SCIP Status        : problem is solved [infeasible]
Total Time         :      12.37
  solving          :      12.37
  presolving       :       0.02 (included in solving)
  reading          :       0.00
  copying          :       0.19 (30 #copies) (minimal 0.00, maximal 0.01, average 0.01)
Original Problem   :
  Problem name     : model
  Variables        : 306 (306 binary, 0 integer, 0 implicit integer, 0 continuous)
  Constraints      : 306 initial, 306 maximal
  Objective        : minimize, 0 non-zeros (abs.min = 1e+20, abs.max = -1e+20)
Presolved Problem  :
  Problem name     : t_model
  Variables        : 286 (286 binary, 0 integer, 0 implicit integer, 0 continuous)
  Constraints      : 293 initial, 3148 maximal
  Objective        : minimize, 0 non-zeros (abs.min = 1e+20, abs.max = -1e+20)
  Nonzeros         : 2075 constraint, 1050 clique table
Presolvers         :   ExecTime  SetupTime  Calls  FixedVars   AggrVars   ChgTypes  ChgBounds   AddHoles    DelCons    AddCons   ChgSides   ChgCoefs
  boundshift       :       0.00       0.00      0          0          0          0          0          0          0          0          0          0
  convertinttobin  :       0.00       0.00      0          0          0          0          0          0          0          0          0          0
  domcol           :       0.00       0.00      3          0          0          0          0          0          0          0          0          0
  dualagg          :       0.00       0.00      0          0          0          0          0          0          0          0          0          0
  dualcomp         :       0.00       0.00      0          0          0          0          0          0          0          0          0          0
  dualinfer        :       0.00       0.00      0          0          0          0          0          0          0          0          0          0
  dualsparsify     :       0.00       0.00      1          0          0          0          0          0          0          0          0          0
  gateextraction   :       0.00       0.00      0          0          0          0          0          0          0          0          0          0
  implics          :       0.00       0.00      5          0          0          0          0          0          0          0          0          0
  inttobinary      :       0.00       0.00      0          0          0          0          0          0          0          0          0          0
  qpkktref         :       0.00       0.00      0          0          0          0          0          0          0          0          0          0
  redvub           :       0.00       0.00      0          0          0          0          0          0          0          0          0          0
  sparsify         :       0.00       0.00      1          0          0          0          0          0          0          0          0          0
  stuffing         :       0.00       0.00      0          0          0          0          0          0          0          0          0          0
  trivial          :       0.00       0.00      8          5          0          0          0          0          0          0          0          0
  tworowbnd        :       0.00       0.00      0          0          0          0          0          0          0          0          0          0
  dualfix          :       0.00       0.00      8          0          0          0          0          0          0          0          0          0
  genvbounds       :       0.00       0.00      0          0          0          0          0          0          0          0          0          0
  probing          :       0.02       0.00      3          0          7          0          0          0          0          0          0          0
  pseudoobj        :       0.00       0.00      0          0          0          0          0          0          0          0          0          0
  symmetry         :       0.00       0.00      1          2          0          0          0          0          0          5          0          0
  vbounds          :       0.00       0.00      2          0          0          0          0          0          0          0          0          0
  knapsack         :       0.00       0.00      0          0          0          0          0          0          0          0          0          0
  setppc           :       0.00       0.00     14          0          5          0          0          0         18          0          1          0
  linear           :       0.00       0.00      2          0          0          0          0          0          0          0          0          0
  orbisack         :       0.00       0.00      2          0          0          0          0          0          0          0          0          0
  orbitope         :       0.00       0.00      3          1          0          0          0          0          0          0          0          0
  symretope        :       0.00       0.00      2          0          0          0          0          0          0          0          0          0
  logicor          :       0.00       0.00      0          0          0          0          0          0          0          0          0          0
  benders          :       0.00       0.00      0          0          0          0          0          0          0          0          0          0
  components       :       0.00       0.00      1          0          0          0          0          0          0          0          0          0
  root node        :          -          -      -         21          -          -         21          -          -          -          -          -
Constraints        :     Number  MaxNumber  #Separate #Propagate    #EnfoLP    #EnfoRelax  #EnfoPS    #Check   #ResProp    Cutoffs    DomReds       Cuts    Applied      Conss   Children
  benderslp        :          0          0          0          0       1256          0          0          7          0          0          0          0          0          0          0
  integral         :          0          0          0          0       1256          0          0          7          0          0          0          0          0          0       2512
  knapsack         :          0+        81          0      21309          0          0          0          0       3581        115       5137          0          0          0          0
  setppc           :        288+       299         11      22889          0          0          0          3      60297        504      47208          1          0          0          0
  linear           :          0+       220         11      20889          0          0          0          0        677         21       1063          0          0          0          0
  orbisack         :          2          2          0         67          0          0          0          0         69          8         44          0          0          0          0
  orbitope         :          2          2          0      22256          0          0          0          0        834         12        373          0          0          0          0
  symretope        :          1          1          0       1739          0          0          0          0        400         33        603          0          0          0          0
  logicor          :          0+      2587         11      14912          0          0          0          0      10375        169       7325          1          0          0          0
  benders          :          0          0          0          0          0          0          0          0          0          0          0          0          0          0          0
  countsols        :          0          0          0          0          0          0          0          0          0          0          0          0          0          0          0
  components       :          0          0          0          0          0          0          0          0          0          0          0          0          0          0          0
Constraint Timings :  TotalTime  SetupTime   Separate  Propagate     EnfoLP     EnfoPS     EnfoRelax   Check    ResProp    SB-Prop
  benderslp        :       0.00       0.00       0.00       0.00       0.00       0.00       0.00       0.00       0.00       0.00
  integral         :       0.25       0.00       0.00       0.00       0.25       0.00       0.00       0.00       0.00       0.00
  knapsack         :       0.11       0.00       0.00       0.10       0.00       0.00       0.00       0.00       0.01       0.00
  setppc           :       0.30       0.00       0.00       0.28       0.00       0.00       0.00       0.00       0.02       0.00
  linear           :       0.05       0.00       0.00       0.05       0.00       0.00       0.00       0.00       0.00       0.00
  orbisack         :       0.00       0.00       0.00       0.00       0.00       0.00       0.00       0.00       0.00       0.00
  orbitope         :       0.07       0.00       0.00       0.06       0.00       0.00       0.00       0.00       0.01       0.00
  symretope        :       0.06       0.00       0.00       0.05       0.00       0.00       0.00       0.00       0.00       0.00
  logicor          :       0.26       0.00       0.00       0.25       0.00       0.00       0.00       0.00       0.01       0.00
  benders          :       0.00       0.00       0.00       0.00       0.00       0.00       0.00       0.00       0.00       0.00
  countsols        :       0.00       0.00       0.00       0.00       0.00       0.00       0.00       0.00       0.00       0.00
  components       :       0.00       0.00       0.00       0.00       0.00       0.00       0.00       0.00       0.00       0.00
Propagators        : #Propagate   #ResProp    Cutoffs    DomReds
  dualfix          :          1          0          0          0
  genvbounds       :          0          0          0          0
  nlobbt           :          0          0          0          0
  obbt             :          0          0          0          0
  probing          :          0          0          0          0
  pseudoobj        :          0          0          0          0
  redcost          :          0          0          0          0
  rootredcost      :          0          0          0          0
  symmetry         :          0          0          0          0
  vbounds          :      16476          0          0          0
Propagator Timings :  TotalTime  SetupTime   Presolve  Propagate    ResProp    SB-Prop
  dualfix          :       0.00       0.00       0.00       0.00       0.00       0.00
  genvbounds       :       0.00       0.00       0.00       0.00       0.00       0.00
  nlobbt           :       0.00       0.00       0.00       0.00       0.00       0.00
  obbt             :       0.00       0.00       0.00       0.00       0.00       0.00
  probing          :       0.02       0.00       0.02       0.00       0.00       0.00
  pseudoobj        :       0.00       0.00       0.00       0.00       0.00       0.00
  redcost          :       0.00       0.00       0.00       0.00       0.00       0.00
  rootredcost      :       0.00       0.00       0.00       0.00       0.00       0.00
  symmetry         :       0.00       0.00       0.00       0.00       0.00       0.00
  vbounds          :       0.03       0.00       0.00       0.03       0.00       0.00
Orbital fixing     :
  vars fixed to 0  :          0
  vars fixed to 1  :          0
Conflict Analysis  :       Time      Calls    Success    DomReds  Conflicts   Literals    Reconvs ReconvLits   Dualrays   Nonzeros   LP Iters   (pool size: [10000,10000])
  propagation      :       0.05        844        767          -       3997       20.3         54        7.6          -          -          -
  infeasible LP    :       0.16        793        649          -       4548       19.3         30        6.4        269       27.6          0
  bound exceed. LP :       0.00          0          0          -          0        0.0          0        0.0          0        0.0          0
  strong branching :       0.00          0          0          -          0        0.0          0        0.0          -          -          0
  pseudo solution  :       0.00          0          0          -          0        0.0          0        0.0          -          -          -
  applied globally :       0.03          -          -          0       5100       15.5          -          -        248          -          -
  applied locally  :          -          -          -          0         26       18.5          -          -         21          -          -
Separators         :   ExecTime  SetupTime      Calls  RootCalls    Cutoffs    DomReds  FoundCuts ViaPoolAdd  DirectAdd    Applied ViaPoolApp  DirectApp      Conss
  cut pool         :       0.75          -        767         21          -          -      12897       4388          -          -          -          -          -    (maximal pool size:       4022)
  aggregation      :       0.41       0.00        418         11          0          0          2          0          1          0          0          0          0
  > cmir           :          -          -          -          -          -          -          -          0          0          0          0          0          -
  > flowcover      :          -          -          -          -          -          -          -          0          0          0          0          0          -
  > knapsackcover  :          -          -          -          -          -          -          -          0          1          0          0          0          -
  cgmip            :       0.00       0.00          0          0          0          0          0          0          0          0          0          0          0
  clique           :       0.00       0.00         11         11          0          0          9         13          0          2          2          0          0
  closecuts        :       0.00       0.00          0          0          0          0          0          0          0          0          0          0          0
  convexproj       :       0.00       0.00          0          0          0          0          0          0          0          0          0          0          0
  disjunctive      :       0.00       0.00          0          0          0          0          0          0          0          0          0          0          0
  eccuts           :       0.00       0.00          0          0          0          0          0          0          0          0          0          0          0
  gauge            :       0.00       0.00          0          0          0          0          0          0          0          0          0          0          0
  gomory           :       1.64       0.00        417         10          0          0      17953       4191       5168        499        371        128          0
  > gomorymi       :          -          -          -          -          -          -          -        787       2584        104         32         72          -
  > strongcg       :          -          -          -          -          -          -          -       3404       2584        395        339         56          -
  impliedbounds    :       0.01       0.00        418         11          0          0         14         39          0         32         32          0          0
  interminor       :       0.00       0.00          0          0          0          0          0          0          0          0          0          0          0
  intobj           :       0.00       0.00          0          0          0          0          0          0          0          0          0          0          0
  mcf              :       0.00       0.00          1          1          0          0          0          0          0          0          0          0          0
  minor            :       0.00       0.00          0          0          0          0          0          0          0          0          0          0          0
  mixing           :       0.00       0.00          0          0          0          0          0          0          0          0          0          0          0
  oddcycle         :       0.00       0.00          0          0          0          0          0          0          0          0          0          0          0
  rapidlearning    :       3.21       0.00         29          1          0       2163          0          0          0          0          0          0        419
  rlt              :       0.00       0.00         10         10          0          0          0          0          0          0          0          0          0
  zerohalf         :       0.21       0.00        418         11          0          0        605        145        517        474         84        390          0
Cutselectors       :   ExecTime  SetupTime      Calls  RootCalls   Selected     Forced   Filtered  RootSelec   RootForc   RootFilt 
  hybrid           :       0.01       0.00        417         11       1007          0       9069         31          0        886
Pricers            :   ExecTime  SetupTime      Calls       Vars
  problem variables:       0.00          -          0          0
Branching Rules    :   ExecTime  SetupTime   BranchLP  BranchExt   BranchPS    Cutoffs    DomReds       Cuts      Conss   Children
  allfullstrong    :       0.00       0.00          0          0          0          0          0          0          0          0
  cloud            :       0.00       0.00          0          0          0          0          0          0          0          0
  distribution     :       0.00       0.00          0          0          0          0          0          0          0          0
  fullstrong       :       0.00       0.00          0          0          0          0          0          0          0          0
  inference        :       0.00       0.00          0          0          0          0          0          0          0          0
  leastinf         :       0.00       0.00          0          0          0          0          0          0          0          0
  lookahead        :       0.00       0.00          0          0          0          0          0          0          0          0
  mostinf          :       0.00       0.00          0          0          0          0          0          0          0          0
  multaggr         :       0.00       0.00          0          0          0          0          0          0          0          0
  nodereopt        :       0.00       0.00          0          0          0          0          0          0          0          0
  pscost           :       0.00       0.00          0          0          0          0          0          0          0          0
  random           :       0.00       0.00          0          0          0          0          0          0          0          0
  relpscost        :       0.25       0.00       1256          0          0          0          0          0          0       2512
  vanillafullstrong:       0.00       0.00          0          0          0          0          0          0          0          0
Primal Heuristics  :   ExecTime  SetupTime      Calls      Found       Best
  LP solutions     :       0.00          -          -          0          0
  relax solutions  :       0.00          -          -          0          0
  pseudo solutions :       0.00          -          -          0          0
  strong branching :       0.00          -          -          0          0
  actconsdiving    :       0.00       0.00          0          0          0
  adaptivediving   :       0.11       0.00         37          0          0
  alns             :       0.01       0.00          1          0          0
  bound            :       0.00       0.00          0          0          0
  clique           :       0.00       0.00          1          0          0
  coefdiving       :       0.00       0.00          0          0          0
  completesol      :       0.00       0.00          0          0          0
  conflictdiving   :       0.04       0.00         21          0          0
  crossover        :       0.00       0.00          0          0          0
  dins             :       0.00       0.00          0          0          0
  distributiondivin:       0.08       0.00         19          0          0
  dps              :       0.00       0.00          0          0          0
  dualval          :       0.00       0.00          0          0          0
  farkasdiving     :       0.00       0.00          0          0          0
  feaspump         :       0.01       0.00          1          0          0
  fixandinfer      :       0.00       0.00          0          0          0
  fracdiving       :       0.04       0.00         20          0          0
  gins             :       0.00       0.00          0          0          0
  guideddiving     :       0.00       0.00          0          0          0
  indicator        :       0.00       0.00          0          0          0
  intdiving        :       0.00       0.00          0          0          0
  intshifting      :       0.00       0.00          0          0          0
  linesearchdiving :       0.06       0.00         20          0          0
  localbranching   :       0.00       0.00          0          0          0
  locks            :       0.00       0.00          1          0          0
  lpface           :       0.00       0.00          0          0          0
  mpec             :       0.00       0.00          0          0          0
  multistart       :       0.00       0.00          0          0          0
  mutation         :       0.00       0.00          0          0          0
  nlpdiving        :       0.00       0.00          0          0          0
  objpscostdiving  :       0.11       0.00          6          0          0
  octane           :       0.00       0.00          0          0          0
  ofins            :       0.00       0.00          0          0          0
  oneopt           :       0.00       0.00          0          0          0
  padm             :       0.00       0.00          0          0          0
  proximity        :       0.00       0.00          0          0          0
  pscostdiving     :       0.05       0.00         20          0          0
  randrounding     :       0.01       0.00         12          0          0
  rens             :       0.00       0.00          0          0          0
  reoptsols        :       0.00       0.00          0          0          0
  repair           :       0.00       0.00          0          0          0
  rins             :       0.00       0.00          0          0          0
  rootsoldiving    :       0.10       0.00         10          0          0
  rounding         :       0.03       0.00        519          0          0
  shiftandpropagate:       0.00       0.00          1          0          0
  shifting         :       0.03       0.00        285          0          0
  simplerounding   :       0.00       0.00          0          0          0
  subnlp           :       0.00       0.00          0          0          0
  trivial          :       0.00       0.00          2          0          0
  trivialnegation  :       0.00       0.00          0          0          0
  trustregion      :       0.00       0.00          0          0          0
  trysol           :       0.00       0.00          0          0          0
  twoopt           :       0.00       0.00          0          0          0
  undercover       :       0.00       0.00          0          0          0
  vbounds          :       0.00       0.00          1          0          0
  veclendiving     :       0.04       0.00         20          0          0
  zeroobj          :       0.00       0.00          0          0          0
  zirounding       :       0.01       0.00       1000          0          0
  other solutions  :          -          -          -          0          -
LP                 :       Time      Calls Iterations  Iter/call   Iter/sec  Time-0-It Calls-0-It    ItLimit
  primal LP        :       0.18        169          0       0.00       0.00       0.18        169
  dual LP          :       3.35       2419     115411      48.05   34438.55       0.00         17
  lex dual LP      :       0.00          0          0       0.00          -
  barrier LP       :       0.00          0          0       0.00          -       0.00          0
  resolve instable :       0.00          0          0       0.00          -
  diving/probing LP:       0.35        231      10312      44.64   29505.34
  strong branching :       0.21         12       5998     499.83   28544.37          -          -          1
    (at root node) :          -         12       5998     499.83          -
  conflict analysis:       0.00          0          0       0.00          -
B&B Tree           :
  number of runs   :          1
  nodes            :       2279 (1256 internal, 1023 leaves)
  feasible leaves  :          0
  infeas. leaves   :       1023
  objective leaves :          0
  nodes (total)    :       2279 (1256 internal, 1023 leaves)
  nodes left       :          0
  max depth        :         18
  max depth (total):         18
  backtracks       :        840 (36.9%)
  early backtracks :          0 (0.0%)
  nodes exc. ref.  :          0 (0.0%)
  delayed cutoffs  :        234
  repropagations   :       1348 (18936 domain reductions, 185 cutoffs)
  avg switch length:       3.99
  switching time   :       0.49
Root Node          :
  First LP value   : +0.00000000000000e+00
  First LP Iters   :        209 (59971.31 Iter/sec)
  First LP Time    :       0.00
  Final Dual Bound : +0.00000000000000e+00
  Final Root Iters :       1567
  Root LP Estimate : +7.24093784971882e-03
Solution           :
  Solutions found  :          0 (0 improvements)
  Primal Bound     : infeasible
  Dual Bound       :          -
  Gap              :       0.00 %
Integrals          :      Total       Avg%
  primal-dual      :          -          - (problem infeasible)
  primal-ref       :          -          - (problem infeasible)
  dual-ref         :          -          - (problem infeasible)
written solution information to file <results/final_flowersnark__settings_final_peek_relabel_respect__3__flowersnark17_3.cip.sol>
@04 1668004089
